results_rootrelaxation/bin012_080_021.srr.sol
solution status: optimal solution found
objective value:                     15.4431818181818
_var690_                            0.534090909090909 	(obj:1)
_var729_                           0.0909090909090906 	(obj:1)
_var737_                             0.15909090909091 	(obj:1)
_var738_                            0.176136363636364 	(obj:1)
_var740_                           0.0284090909090909 	(obj:1)
_var746_                            0.159090909090909 	(obj:2)
_var777_                            0.522727272727273 	(obj:0)
_var782_                            0.329545454545454 	(obj:2)
_var797_                            0.107954545454546 	(obj:2)
_var810_                            0.448863636363636 	(obj:0)
_var817_                            0.369318181818182 	(obj:2)
_var826_                            0.267045454545455 	(obj:2)
_var838_                            0.198863636363636 	(obj:2)
_var840_                           0.0568181818181819 	(obj:2)
_var846_                            0.494318181818182 	(obj:2)
_var855_                            0.420454545454546 	(obj:2)
_var858_                            0.113636363636363 	(obj:1)
_var860_                            0.034090909090909 	(obj:1)
_var864_                            0.267045454545455 	(obj:1)
_var865_                           0.0284090909090911 	(obj:0)
_var868_                           0.0170454545454545 	(obj:1)
_var871_                            0.698863636363636 	(obj:0)
_var873_                            0.323863636363636 	(obj:2)
_var878_                            0.301136363636364 	(obj:2)
_var885_                           0.0340909090909093 	(obj:2)
_var886_                            0.181818181818182 	(obj:2)
_var889_                            0.204545454545455 	(obj:2)
_var892_                           0.0681818181818186 	(obj:1)
_var896_                           0.0681818181818179 	(obj:1)
_var898_                            0.465909090909091 	(obj:2)
_var899_                            0.284090909090909 	(obj:0)
_var903_                           0.0454545454545452 	(obj:1)
_var904_                            0.465909090909091 	(obj:2)
_var915_                           0.0454545454545452 	(obj:2)
_var916_                            0.522727272727273 	(obj:2)
_var917_                            0.198863636363637 	(obj:1)
_var921_                           0.0397727272727277 	(obj:3)
_var924_                           0.0965909090909087 	(obj:2)
_var926_                            0.011363636363637 	(obj:1)
_var929_                           0.0738636363636363 	(obj:3)
_var933_                            0.176136363636364 	(obj:1)
_var934_                            0.107954545454545 	(obj:2)
_var937_                            0.443181818181818 	(obj:2)
_var938_                            0.198863636363637 	(obj:1)
_var939_                            0.323863636363636 	(obj:1)
_var941_                           0.0454545454545452 	(obj:2)
_var943_                            0.107954545454545 	(obj:1)
_var944_                            0.193181818181818 	(obj:1)
_var945_                            0.284090909090909 	(obj:2)
_var946_                            0.136363636363636 	(obj:3)
_var948_                            0.028409090909091 	(obj:1)
